p td 15 45
3 2
5 1
5 4
6 1
6 4
8 5
9 6
9 8
9 7
10 8
10 3
10 2
11 8
11 2
11 3
11 4
11 1
11 9
12 6
12 2
12 5
12 7
12 9
12 1
13 11
13 10
13 2
13 1
13 7
13 5
14 10
14 9
14 5
14 3
14 11
14 2
14 1
15 4
15 10
15 7
15 2
15 6
15 9
15 1
15 14
